unsat
(define-fun SC ((s (_ BitVec 4)) (t (_ BitVec 4))) Bool true)
0.00user 0.00system 0:00.01elapsed 100%CPU (0avgtext+0avgdata 24776maxresident)k
0inputs+8outputs (0major+919minor)pagefaults 0swaps
